data/pricings/dzn/2023/github.dzn
num_features = 73;
num_usage_limits = 9;
num_plans = 3;
num_addons = 14;

features = ["publicRepositories","privateRepositories","githubCodespaces","githubActions","githubPackages","codeReviews","pullRequests","protectedBranches","codeOwners","draftPullRequests","multiplePullRequestsAssignees","repositoryInsights","scheduledReminders","automaticCodeReviewAssigment","enviromentProtectionRules","enviromentDeploymentBranchesAndSecrets","collaboratorsForPublicRepositories","collaboratorsForPrivateRepositories","issues","projects","milestones","teamDiscussions","organizationAndTeamManagement","pagesAndWikis","multipleIssueAssignees","codeScanning","secretScanning","dependencyReview","securityOverview","dependabotAlerts","dependabotSecurityUpdates","dependabotVersionUpdates","repositoryRules","requiredReviews","requiredStatusChecks","githubSecurityAdvisories","roleBasedAccessControl","required2FA","auditLog","auditLogAPI","githubConnect","singleSignOn","ldap","ipAllowList","githubApps","statusChecks","preReceiveHooks","communitySupport","standardSupport","premiumAndPremiumPlusSupport","invoiceBilling","selfHostedDeployment","copilotChatInIDEAndMobile","copilotCLIAssistance","copilotSecurityVulnerabilityFilter","copilotCodeReferencing","copilotPublicCodeFilter","copilotIPIndemnity","copilotEnterpriseGradeSecuritySafetyAndPrivacy","copilotCodebasePersonalizedChat","copilotDocumentationSearchAndSummaries","copilotPullRequestSummaries","copilotCodeReviewSkills","copilotFinedTunedModels","copilotTelemetry","copilotBlocksSuggestionsMatchingPublicCode","copilotEditorPlugin","copilotMultilineFunctionSuggestions","copilotOrganizationWidePolicyManagement","copilotExcludeSpecifiedFiles","copilotAuditLogs","copilotHTTPProxySupportViaCustomCertificates","gitLFS"];
usage_limits = ["githubOnlyForPublicRepositoriesFreeTier","githubOnlyForPublicRepositoriesTeamTier","githubActionsQuota","diskSpaceForGithubPackages","githubCodepacesStorage","githubCodepacesCoreHours","gitLFSMaximunFileSize","gitLFSStorageLimit","gitLFSBandwithLimit"];
plans = ["FREE","TEAM","ENTERPRISE"];
addons = ["githubCopilotIndividuals","githubCopilotBusiness","githubCopilotEnterprise","githubCodespaces2Core","githubCodespaces4Core","githubCodespaces8Core","githubCodespaces16Core","githubCodespaces32Core","githubCodespacesStorage","gitLFSDataPack","githubAdvancedSecurity","premiumSupport","enterpriseServer","enterpriseCloud"];

plans_prices = [0,4,21];
addons_prices = [10,19,39,0.18,0.36,0.72,1.44,2.88,0.07,5,49,100,100,100];

linked_features = array2d(USAGE_LIMITS, FEATURES, [
    % githubOnlyForPublicRepositoriesFreeTier
    0,0,0,0,0,0,0,1,1,1,1,1,1,1,1,1,0,0,0,0,0,0,0,1,1,1,1,1,0,0,0,0,0,1,1,1,0,0,0,0,0,0,0,0,0,0,0,0,0,0,0,0,0,0,0,0,0,0,0,0,0,0,0,0,0,0,0,0,0,0,0,0,0,
    % githubOnlyForPublicRepositoriesTeamTier
    0,0,0,0,0,0,0,0,0,0,0,0,0,0,1,0,0,0,0,0,0,0,0,0,0,1,1,1,0,0,0,0,0,1,1,1,0,0,0,0,0,0,0,0,0,0,0,0,0,0,0,0,0,0,0,0,0,0,0,0,0,0,0,0,0,0,0,0,0,0,0,0,0,
    % githubActionsQuota
    0,0,0,1,0,0,0,0,0,0,0,0,0,0,0,0,0,0,0,0,0,0,0,0,0,0,0,0,0,0,0,0,0,0,0,0,0,0,0,0,0,0,0,0,0,0,0,0,0,0,0,0,0,0,0,0,0,0,0,0,0,0,0,0,0,0,0,0,0,0,0,0,0,
    % diskSpaceForGithubPackages
    0,0,0,0,1,0,0,0,0,0,0,0,0,0,0,0,0,0,0,0,0,0,0,0,0,0,0,0,0,0,0,0,0,0,0,0,0,0,0,0,0,0,0,0,0,0,0,0,0,0,0,0,0,0,0,0,0,0,0,0,0,0,0,0,0,0,0,0,0,0,0,0,0,
    % githubCodepacesStorage
    0,0,1,0,0,0,0,0,0,0,0,0,0,0,0,0,0,0,0,0,0,0,0,0,0,0,0,0,0,0,0,0,0,0,0,0,0,0,0,0,0,0,0,0,0,0,0,0,0,0,0,0,0,0,0,0,0,0,0,0,0,0,0,0,0,0,0,0,0,0,0,0,0,
    % githubCodepacesCoreHours
    0,0,1,0,0,0,0,0,0,0,0,0,0,0,0,0,0,0,0,0,0,0,0,0,0,0,0,0,0,0,0,0,0,0,0,0,0,0,0,0,0,0,0,0,0,0,0,0,0,0,0,0,0,0,0,0,0,0,0,0,0,0,0,0,0,0,0,0,0,0,0,0,0,
    % gitLFSMaximunFileSize
    0,0,0,0,0,0,0,0,0,0,0,0,0,0,0,0,0,0,0,0,0,0,0,0,0,0,0,0,0,0,0,0,0,0,0,0,0,0,0,0,0,0,0,0,0,0,0,0,0,0,0,0,0,0,0,0,0,0,0,0,0,0,0,0,0,0,0,0,0,0,0,0,1,
    % gitLFSStorageLimit
    0,0,0,0,0,0,0,0,0,0,0,0,0,0,0,0,0,0,0,0,0,0,0,0,0,0,0,0,0,0,0,0,0,0,0,0,0,0,0,0,0,0,0,0,0,0,0,0,0,0,0,0,0,0,0,0,0,0,0,0,0,0,0,0,0,0,0,0,0,0,0,0,1,
    % gitLFSBandwithLimit
    0,0,0,0,0,0,0,0,0,0,0,0,0,0,0,0,0,0,0,0,0,0,0,0,0,0,0,0,0,0,0,0,0,0,0,0,0,0,0,0,0,0,0,0,0,0,0,0,0,0,0,0,0,0,0,0,0,0,0,0,0,0,0,0,0,0,0,0,0,0,0,0,1
]);

plans_features = array2d(PLANS, FEATURES, [
    % FREE
    1,1,1,1,1,1,1,1,1,1,1,1,1,1,1,1,1,1,1,1,1,1,1,1,1,1,1,1,0,1,1,1,0,1,1,1,1,1,1,0,0,0,0,0,1,1,0,1,0,0,1,0,0,0,0,0,0,0,0,0,0,0,0,0,0,0,0,0,0,0,0,0,1,
    % TEAM
    1,1,1,1,1,1,1,1,1,1,1,1,1,1,1,1,1,1,1,1,1,1,1,1,1,1,1,1,0,1,1,1,0,1,1,1,1,1,1,0,0,0,0,0,1,1,0,1,1,0,1,0,0,0,0,0,0,0,0,0,0,0,0,0,0,0,0,0,0,0,0,0,1,
    % ENTERPRISE
    1,1,0,1,1,1,1,1,1,1,1,1,1,1,1,1,1,1,1,1,1,1,1,1,1,1,1,1,1,1,1,1,1,1,1,1,1,1,1,1,1,1,1,0,1,1,0,1,1,0,1,0,0,0,0,0,0,0,0,0,0,0,0,0,0,0,0,0,0,0,0,0,1
]);
plans_usage_limits = array2d(PLANS, USAGE_LIMITS, [
    % FREE
    1,0,2000,0.5,15,120,2,1,1,
    % TEAM
    1,0,3000,2,20,180,4,1,1,
    % ENTERPRISE
    0,1,50000,50,15,120,5,1,1
]);

addons_features = array2d(ADDONS, FEATURES, [
    % githubCopilotIndividuals
    0,0,0,0,0,0,0,0,0,0,0,0,0,0,0,0,0,0,0,0,0,0,0,0,0,0,0,0,0,0,0,0,0,0,0,0,0,0,0,0,0,0,0,0,0,0,0,0,0,0,0,0,1,1,1,1,1,1,1,1,1,1,1,1,1,1,1,1,1,1,1,1,0,
    % githubCopilotBusiness
    0,0,0,0,0,0,0,0,0,0,0,0,0,0,0,0,0,0,0,0,0,0,0,0,0,0,0,0,0,0,0,0,0,0,0,0,0,0,0,0,0,0,0,0,0,0,0,0,0,0,0,0,1,1,1,1,1,1,1,0,0,0,0,0,0,1,1,1,0,0,0,0,0,
    % githubCopilotEnterprise
    0,0,0,0,0,0,0,0,0,0,0,0,0,0,0,0,0,0,0,0,0,0,0,0,0,0,0,0,0,0,0,0,0,0,0,0,0,0,0,0,0,0,0,0,0,0,0,0,0,0,0,0,1,1,1,1,1,1,1,1,1,1,1,1,1,1,1,1,1,1,1,1,0,
    % githubCodespaces2Core
    0,0,1,0,0,0,0,0,0,0,0,0,0,0,0,0,0,0,0,0,0,0,0,0,0,0,0,0,0,0,0,0,0,0,0,0,0,0,0,0,0,0,0,0,0,0,0,0,0,0,0,0,0,0,0,0,0,0,0,0,0,0,0,0,0,0,0,0,0,0,0,0,0,
    % githubCodespaces4Core
    0,0,1,0,0,0,0,0,0,0,0,0,0,0,0,0,0,0,0,0,0,0,0,0,0,0,0,0,0,0,0,0,0,0,0,0,0,0,0,0,0,0,0,0,0,0,0,0,0,0,0,0,0,0,0,0,0,0,0,0,0,0,0,0,0,0,0,0,0,0,0,0,0,
    % githubCodespaces8Core
    0,0,1,0,0,0,0,0,0,0,0,0,0,0,0,0,0,0,0,0,0,0,0,0,0,0,0,0,0,0,0,0,0,0,0,0,0,0,0,0,0,0,0,0,0,0,0,0,0,0,0,0,0,0,0,0,0,0,0,0,0,0,0,0,0,0,0,0,0,0,0,0,0,
    % githubCodespaces16Core
    0,0,1,0,0,0,0,0,0,0,0,0,0,0,0,0,0,0,0,0,0,0,0,0,0,0,0,0,0,0,0,0,0,0,0,0,0,0,0,0,0,0,0,0,0,0,0,0,0,0,0,0,0,0,0,0,0,0,0,0,0,0,0,0,0,0,0,0,0,0,0,0,0,
    % githubCodespaces32Core
    0,0,1,0,0,0,0,0,0,0,0,0,0,0,0,0,0,0,0,0,0,0,0,0,0,0,0,0,0,0,0,0,0,0,0,0,0,0,0,0,0,0,0,0,0,0,0,0,0,0,0,0,0,0,0,0,0,0,0,0,0,0,0,0,0,0,0,0,0,0,0,0,0,
    % githubCodespacesStorage
    0,0,1,0,0,0,0,0,0,0,0,0,0,0,0,0,0,0,0,0,0,0,0,0,0,0,0,0,0,0,0,0,0,0,0,0,0,0,0,0,0,0,0,0,0,0,0,0,0,0,0,0,0,0,0,0,0,0,0,0,0,0,0,0,0,0,0,0,0,0,0,0,0,
    % gitLFSDataPack
    0,0,0,0,0,0,0,0,0,0,0,0,0,0,0,0,0,0,0,0,0,0,0,0,0,0,0,0,0,0,0,0,0,0,0,0,0,0,0,0,0,0,0,0,0,0,0,0,0,0,0,0,0,0,0,0,0,0,0,0,0,0,0,0,0,0,0,0,0,0,0,0,0,
    % githubAdvancedSecurity
    0,0,0,0,0,0,0,0,0,0,0,0,0,0,0,0,0,0,0,0,0,0,0,0,0,1,1,1,0,0,0,0,0,0,0,0,0,0,0,0,0,0,0,0,0,0,0,0,0,0,0,0,0,0,0,0,0,0,0,0,0,0,0,0,0,0,0,0,0,0,0,0,0,
    % premiumSupport
    0,0,0,0,0,0,0,0,0,0,0,0,0,0,0,0,0,0,0,0,0,0,0,0,0,0,0,0,0,0,0,0,0,0,0,0,0,0,0,0,0,0,0,0,0,0,0,0,0,1,0,0,0,0,0,0,0,0,0,0,0,0,0,0,0,0,0,0,0,0,0,0,0,
    % enterpriseServer
    0,0,0,0,0,0,0,0,0,0,0,0,0,0,0,0,0,0,0,0,0,0,0,0,0,0,0,0,0,0,0,0,0,0,0,0,0,0,0,0,0,0,0,0,0,0,1,0,0,0,0,1,0,0,0,0,0,0,0,0,0,0,0,0,0,0,0,0,0,0,0,0,0,
    % enterpriseCloud
    0,0,0,0,0,0,0,0,0,0,0,0,0,0,0,0,0,0,0,0,0,0,0,0,0,0,0,0,0,0,0,0,0,0,0,1,0,0,0,0,0,0,0,1,0,0,0,0,0,0,0,0,0,0,0,0,0,0,0,0,0,0,0,0,0,0,0,0,0,0,0,0,0
]);
addons_usage_limits = array2d(ADDONS, USAGE_LIMITS, [
    % githubCopilotIndividuals
    0,0,0,0,0,0,0,0,0,
    % githubCopilotBusiness
    0,0,0,0,0,0,0,0,0,
    % githubCopilotEnterprise
    0,0,0,0,0,0,0,0,0,
    % githubCodespaces2Core
    0,0,0,0,0,0,0,0,0,
    % githubCodespaces4Core
    0,0,0,0,0,0,0,0,0,
    % githubCodespaces8Core
    0,0,0,0,0,0,0,0,0,
    % githubCodespaces16Core
    0,0,0,0,0,0,0,0,0,
    % githubCodespaces32Core
    0,0,0,0,0,0,0,0,0,
    % githubCodespacesStorage
    0,0,0,0,0,0,0,0,0,
    % gitLFSDataPack
    0,0,0,0,0,0,0,0,0,
    % githubAdvancedSecurity
    0,0,0,0,0,0,0,0,0,
    % premiumSupport
    0,0,0,0,0,0,0,0,0,
    % enterpriseServer
    0,0,0,0,0,0,0,0,0,
    % enterpriseCloud
    0,0,0,0,0,0,0,0,0
]);
addons_usage_limits_extensions = array2d(ADDONS, USAGE_LIMITS, [
    % githubCopilotIndividuals
    0,0,0,0,0,0,0,0,0,
    % githubCopilotBusiness
    0,0,0,0,0,0,0,0,0,
    % githubCopilotEnterprise
    0,0,0,0,0,0,0,0,0,
    % githubCodespaces2Core
    0,0,0,0,0,0,0,0,0,
    % githubCodespaces4Core
    0,0,0,0,0,0,0,0,0,
    % githubCodespaces8Core
    0,0,0,0,0,0,0,0,0,
    % githubCodespaces16Core
    0,0,0,0,0,0,0,0,0,
    % githubCodespaces32Core
    0,0,0,0,0,0,0,0,0,
    % githubCodespacesStorage
    0,0,0,0,0,0,0,0,0,
    % gitLFSDataPack
    0,0,0,0,0,0,0,50,50,
    % githubAdvancedSecurity
    0,0,0,0,0,0,0,0,0,
    % premiumSupport
    0,0,0,0,0,0,0,0,0,
    % enterpriseServer
    0,0,0,0,0,0,0,0,0,
    % enterpriseCloud
    0,0,0,0,0,0,0,0,0
]);
addons_available_for = array2d(ADDONS, PLANS, [
    % githubCopilotIndividuals
    1,1,0,
    % githubCopilotBusiness
    0,1,1,
    % githubCopilotEnterprise
    0,0,1,
    % githubCodespaces2Core
    1,1,1,
    % githubCodespaces4Core
    1,1,1,
    % githubCodespaces8Core
    1,1,1,
    % githubCodespaces16Core
    1,1,1,
    % githubCodespaces32Core
    1,1,1,
    % githubCodespacesStorage
    1,1,1,
    % gitLFSDataPack
    1,1,1,
    % githubAdvancedSecurity
    0,0,1,
    % premiumSupport
    0,0,1,
    % enterpriseServer
    0,0,1,
    % enterpriseCloud
    0,0,1
]);
addons_depends_on = array2d(ADDONS, ADDONS, [
    % githubCopilotIndividuals
    0,0,0,0,0,0,0,0,0,0,0,0,0,0,
    % githubCopilotBusiness
    0,0,0,0,0,0,0,0,0,0,0,0,0,0,
    % githubCopilotEnterprise
    0,0,0,0,0,0,0,0,0,0,0,0,0,0,
    % githubCodespaces2Core
    0,0,0,0,0,0,0,0,0,0,0,0,0,0,
    % githubCodespaces4Core
    0,0,0,0,0,0,0,0,0,0,0,0,0,0,
    % githubCodespaces8Core
    0,0,0,0,0,0,0,0,0,0,0,0,0,0,
    % githubCodespaces16Core
    0,0,0,0,0,0,0,0,0,0,0,0,0,0,
    % githubCodespaces32Core
    0,0,0,0,0,0,0,0,0,0,0,0,0,0,
    % githubCodespacesStorage
    0,0,0,0,0,0,0,0,0,0,0,0,0,0,
    % gitLFSDataPack
    0,0,0,0,0,0,0,0,0,0,0,0,0,0,
    % githubAdvancedSecurity
    0,0,0,0,0,0,0,0,0,0,0,0,0,0,
    % premiumSupport
    0,0,0,0,0,0,0,0,0,0,0,0,0,0,
    % enterpriseServer
    0,0,0,0,0,0,0,0,0,0,0,0,0,0,
    % enterpriseCloud
    0,0,0,0,0,0,0,0,0,0,0,0,0,0
]);
